c generated by sgen
p cnf 105 220
-2 -3 -4 0
-1 -3 -4 0
-1 -2 -4 0
-1 -2 -3 0
-6 -7 -8 0
-5 -7 -8 0
-5 -6 -8 0
-5 -6 -7 0
-10 -11 -12 0
-9 -11 -12 0
-9 -10 -12 0
-9 -10 -11 0
-14 -15 -16 0
-13 -15 -16 0
-13 -14 -16 0
-13 -14 -15 0
-18 -19 -20 0
-17 -19 -20 0
-17 -18 -20 0
-17 -18 -19 0
-22 -23 -24 0
-21 -23 -24 0
-21 -22 -24 0
-21 -22 -23 0
-26 -27 -28 0
-25 -27 -28 0
-25 -26 -28 0
-25 -26 -27 0
-30 -31 -32 0
-29 -31 -32 0
-29 -30 -32 0
-29 -30 -31 0
-34 -35 -36 0
-33 -35 -36 0
-33 -34 -36 0
-33 -34 -35 0
-38 -39 -40 0
-37 -39 -40 0
-37 -38 -40 0
-37 -38 -39 0
-42 -43 -44 0
-41 -43 -44 0
-41 -42 -44 0
-41 -42 -43 0
-46 -47 -48 0
-45 -47 -48 0
-45 -46 -48 0
-45 -46 -47 0
-50 -51 -52 0
-49 -51 -52 0
-49 -50 -52 0
-49 -50 -51 0
-54 -55 -56 0
-53 -55 -56 0
-53 -54 -56 0
-53 -54 -55 0
-58 -59 -60 0
-57 -59 -60 0
-57 -58 -60 0
-57 -58 -59 0
-62 -63 -64 0
-61 -63 -64 0
-61 -62 -64 0
-61 -62 -63 0
-66 -67 -68 0
-65 -67 -68 0
-65 -66 -68 0
-65 -66 -67 0
-70 -71 -72 0
-69 -71 -72 0
-69 -70 -72 0
-69 -70 -71 0
-74 -75 -76 0
-73 -75 -76 0
-73 -74 -76 0
-73 -74 -75 0
-78 -79 -80 0
-77 -79 -80 0
-77 -78 -80 0
-77 -78 -79 0
-82 -83 -84 0
-81 -83 -84 0
-81 -82 -84 0
-81 -82 -83 0
-86 -87 -88 0
-85 -87 -88 0
-85 -86 -88 0
-85 -86 -87 0
-90 -91 -92 0
-89 -91 -92 0
-89 -90 -92 0
-89 -90 -91 0
-94 -95 -96 0
-93 -95 -96 0
-93 -94 -96 0
-93 -94 -95 0
-98 -99 -100 0
-97 -99 -100 0
-97 -98 -100 0
-97 -98 -99 0
-101 -102 -103 0
-101 -102 -104 0
-101 -102 -105 0
-101 -103 -104 0
-101 -103 -105 0
-101 -104 -105 0
-102 -103 -104 0
-102 -103 -105 0
-102 -104 -105 0
-103 -104 -105 0
16 5 21 0
92 5 21 0
92 16 21 0
92 16 5 0
94 38 24 0
32 38 24 0
32 94 24 0
32 94 38 0
33 73 72 0
39 73 72 0
39 33 72 0
39 33 73 0
9 40 6 0
79 40 6 0
79 9 6 0
79 9 40 0
82 77 50 0
20 77 50 0
20 82 50 0
20 82 77 0
101 42 34 0
91 42 34 0
91 101 34 0
91 101 42 0
100 70 93 0
80 70 93 0
80 100 93 0
80 100 70 0
103 75 63 0
97 75 63 0
97 103 63 0
97 103 75 0
56 76 96 0
48 76 96 0
48 56 96 0
48 56 76 0
71 29 12 0
86 29 12 0
86 71 12 0
86 71 29 0
89 37 98 0
54 37 98 0
54 89 98 0
54 89 37 0
2 7 19 0
69 7 19 0
69 2 19 0
69 2 7 0
35 84 28 0
99 84 28 0
99 35 28 0
99 35 84 0
87 52 8 0
104 52 8 0
104 87 8 0
104 87 52 0
55 67 59 0
17 67 59 0
17 55 59 0
17 55 67 0
36 45 49 0
1 45 49 0
1 36 49 0
1 36 45 0
88 14 57 0
83 14 57 0
83 88 57 0
83 88 14 0
44 11 15 0
53 11 15 0
53 44 15 0
53 44 11 0
62 22 51 0
10 22 51 0
10 62 51 0
10 62 22 0
60 74 78 0
31 74 78 0
31 60 78 0
31 60 74 0
25 68 105 0
30 68 105 0
30 25 105 0
30 25 68 0
81 46 43 0
66 46 43 0
66 81 43 0
66 81 46 0
95 85 90 0
61 85 90 0
61 95 90 0
61 95 85 0
65 4 23 0
102 4 23 0
102 65 23 0
102 65 4 0
41 3 58 0
27 3 58 0
27 41 58 0
27 41 3 0
13 18 26 0
13 18 47 0
13 18 64 0
13 26 47 0
13 26 64 0
13 47 64 0
18 26 47 0
18 26 64 0
18 47 64 0
26 47 64 0
